
atom_style full

read_data 1.data extra/atom/types 1 extra/bond/types 1 extra/bond/per/atom 1 extra/special/per/atom 2
read_data 2.data add append offset 1 0 0 0 0

pair_style zero 5.0
pair_coeff * *

bond_style harmonic
bond_coeff * 100 1.1

fix 2 all bond/create 1 1 2 1.0 1

run 100 post no

write_data 3.data pair ij


